1648792800
1648821600
1649138400
1649167200
1649224800
1649253600
1649311200
1649340000
1649397600
1649426400
1649656800
1649685600
1649685600
1649692800
1649743200
1649772000
1649829600
1649858400
1649916000
1649944800
1650348000
1650376800
1650434400
1650463200
1650520800
1650549600
1650607200
1650636000
1650866400
1650895200
1650952800
1650981600
1651039200
1651068000
1651125600
1651154400
1651212000
1651240800
